40131 39339 
39658 39796 
38876 40308 
39931 39597 
40002 39483 
40237 39233 
39959 39485 
39148 40111 
38660 40563 
38213 40608 
38669 40446 
38968 40180 
38937 40272 
39709 39660 
40166 39300 
39678 39752 
40268 39094 
39835 39655 
40503 38844 
40472 38936 
38006 40705 
37873 40753 
37825 40769 
38844 40311 
38425 40575 
39198 40089 
38416 40601 
38702 40318 
39542 39832 
40401 39050 
40030 39380 
40656 38684 
39485 39992 
38157 40639 
37522 40949 
37678 40799 
38670 40341 
39250 40038 
39680 39708 
39652 39820 
36737 41003 
36616 41035 
37287 40961 
40846 38311 
40992 38212 
36381 41047 
40682 38503 
40877 38219 
40808 38464 
41023 38120 
40684 38465 
40839 38372 
40387 39074 
40582 38790 
